
Gurobi 7.5.2 (win32, Python) logging started 07/01/18 18:52:47

Academic license - for non-commercial use only

Gurobi 7.5.2 (win32, Python) logging started 07/01/18 20:31:58

Academic license - for non-commercial use only

Gurobi 7.5.2 (win32, Python) logging started 07/01/18 20:32:25

Academic license - for non-commercial use only

Gurobi 7.5.2 (win32, Python) logging started 07/01/18 20:37:22

Academic license - for non-commercial use only

Gurobi 7.5.2 (win32, Python) logging started 07/01/18 20:38:00

Academic license - for non-commercial use only

Gurobi 7.5.2 (win32, Python) logging started 07/01/18 20:39:03

Academic license - for non-commercial use only

Gurobi 7.5.2 (win32, Python) logging started 07/01/18 20:39:36

Academic license - for non-commercial use only

Gurobi 7.5.2 (win32, Python) logging started 07/01/18 20:41:48

Academic license - for non-commercial use only

Gurobi 7.5.2 (win32, Python) logging started 07/01/18 21:02:14

Academic license - for non-commercial use only

Gurobi 7.5.2 (win32, Python) logging started 07/01/18 21:09:46

Academic license - for non-commercial use only

Gurobi 7.5.2 (win32, Python) logging started 07/01/18 21:23:33

Academic license - for non-commercial use only

Gurobi 7.5.2 (win32, Python) logging started 07/01/18 21:24:58

Academic license - for non-commercial use only

Gurobi 7.5.2 (win32, Python) logging started 07/01/18 21:25:18

Academic license - for non-commercial use only

Gurobi 7.5.2 (win32, Python) logging started 07/01/18 21:25:46

Academic license - for non-commercial use only

Gurobi 7.5.2 (win32, Python) logging started 07/01/18 21:26:00

Academic license - for non-commercial use only

Gurobi 7.5.2 (win32, Python) logging started 07/01/18 21:26:09

Academic license - for non-commercial use only

Gurobi 7.5.2 (win32, Python) logging started 07/01/18 21:26:33

Academic license - for non-commercial use only

Gurobi 7.5.2 (win32, Python) logging started 07/01/18 21:28:18

Academic license - for non-commercial use only

Gurobi 7.5.2 (win32, Python) logging started 07/04/18 12:54:46

Academic license - for non-commercial use only

Gurobi 7.5.2 (win32, Python) logging started 07/04/18 12:58:54

Academic license - for non-commercial use only

Gurobi 7.5.2 (win32, Python) logging started 07/04/18 12:59:12

Academic license - for non-commercial use only

Gurobi 7.5.2 (win32, Python) logging started 07/04/18 13:01:07

Academic license - for non-commercial use only

Gurobi 7.5.2 (win32, Python) logging started 07/06/18 04:40:48

Academic license - for non-commercial use only

Gurobi 7.5.2 (win32, Python) logging started 07/06/18 04:42:25

Academic license - for non-commercial use only

Gurobi 7.5.2 (win32, Python) logging started 07/06/18 04:42:37

Academic license - for non-commercial use only

Gurobi 7.5.2 (win32, Python) logging started 07/06/18 04:42:50

Academic license - for non-commercial use only

Gurobi 7.5.2 (win32, Python) logging started 07/06/18 04:44:32

Academic license - for non-commercial use only

Gurobi 7.5.2 (win32, Python) logging started 07/06/18 06:04:20

Academic license - for non-commercial use only

Gurobi 7.5.2 (win32, Python) logging started 07/06/18 06:05:17

Academic license - for non-commercial use only

Gurobi 7.5.2 (win32, Python) logging started 07/06/18 06:10:59

Academic license - for non-commercial use only

Gurobi 7.5.2 (win32, Python) logging started 07/06/18 06:13:03

Academic license - for non-commercial use only

Gurobi 7.5.2 (win32, Python) logging started 07/06/18 06:13:10

Academic license - for non-commercial use only

Gurobi 7.5.2 (win32, Python) logging started 07/06/18 06:15:34

Academic license - for non-commercial use only

Gurobi 7.5.2 (win32, Python) logging started 07/06/18 06:17:13

Academic license - for non-commercial use only

Gurobi 7.5.2 (win32, Python) logging started 07/06/18 06:18:20

Academic license - for non-commercial use only

Gurobi 7.5.2 (win32, Python) logging started 07/06/18 06:22:12

Academic license - for non-commercial use only

Gurobi 7.5.2 (win32, Python) logging started 07/06/18 06:22:54

Academic license - for non-commercial use only

Gurobi 7.5.2 (win32, Python) logging started 07/06/18 06:23:53

Academic license - for non-commercial use only

Gurobi 7.5.2 (win32, Python) logging started 07/06/18 06:24:02

Academic license - for non-commercial use only

Gurobi 7.5.2 (win32, Python) logging started 07/06/18 06:32:44

Academic license - for non-commercial use only

Gurobi 7.5.2 (win32, Python) logging started 07/06/18 06:33:58

Academic license - for non-commercial use only

Gurobi 7.5.2 (win32, Python) logging started 07/06/18 06:34:08

Academic license - for non-commercial use only

Gurobi 7.5.2 (win32, Python) logging started 07/06/18 06:35:43

Academic license - for non-commercial use only

Gurobi 7.5.2 (win32, Python) logging started 07/06/18 06:36:00

Academic license - for non-commercial use only

Gurobi 7.5.2 (win32, Python) logging started 07/06/18 06:36:16

Academic license - for non-commercial use only

Gurobi 7.5.2 (win32, Python) logging started 07/06/18 06:36:35

Academic license - for non-commercial use only

Gurobi 7.5.2 (win32, Python) logging started 07/06/18 06:36:47

Academic license - for non-commercial use only

Gurobi 7.5.2 (win32, Python) logging started 07/06/18 06:37:08

Academic license - for non-commercial use only

Gurobi 7.5.2 (win32, Python) logging started 07/06/18 06:37:52

Academic license - for non-commercial use only

Gurobi 7.5.2 (win32, Python) logging started 07/06/18 06:38:03

Academic license - for non-commercial use only

Gurobi 7.5.2 (win32, Python) logging started 07/06/18 06:38:20

Academic license - for non-commercial use only

Gurobi 7.5.2 (win32, Python) logging started 07/06/18 06:38:55

Academic license - for non-commercial use only

Gurobi 7.5.2 (win32, Python) logging started 07/06/18 06:39:20

Academic license - for non-commercial use only

Gurobi 7.5.2 (win32, Python) logging started 07/06/18 06:40:01

Academic license - for non-commercial use only

Gurobi 7.5.2 (win32, Python) logging started 07/06/18 06:40:17

Academic license - for non-commercial use only

Gurobi 7.5.2 (win32, Python) logging started 07/06/18 06:40:48

Academic license - for non-commercial use only

Gurobi 7.5.2 (win32, Python) logging started 07/06/18 06:40:56

Academic license - for non-commercial use only

Gurobi 7.5.2 (win32, Python) logging started 07/06/18 06:41:17

Academic license - for non-commercial use only

Gurobi 7.5.2 (win32, Python) logging started 07/06/18 06:42:52

Academic license - for non-commercial use only

Gurobi 7.5.2 (win32, Python) logging started 07/06/18 06:43:05

Academic license - for non-commercial use only

Gurobi 7.5.2 (win32, Python) logging started 07/06/18 06:43:21

Academic license - for non-commercial use only

Gurobi 7.5.2 (win32, Python) logging started 07/06/18 06:43:38

Academic license - for non-commercial use only

Gurobi 7.5.2 (win32, Python) logging started 07/06/18 06:44:24

Academic license - for non-commercial use only

Gurobi 7.5.2 (win32, Python) logging started 07/06/18 06:44:57

Academic license - for non-commercial use only

Gurobi 7.5.2 (win32, Python) logging started 07/06/18 06:45:07

Academic license - for non-commercial use only

Gurobi 7.5.2 (win32, Python) logging started 07/06/18 06:45:21

Academic license - for non-commercial use only

Gurobi 7.5.2 (win32, Python) logging started 07/06/18 06:45:45

Academic license - for non-commercial use only

Gurobi 7.5.2 (win32, Python) logging started 07/06/18 06:45:56

Academic license - for non-commercial use only

Gurobi 7.5.2 (win32, Python) logging started 07/06/18 06:46:12

Academic license - for non-commercial use only

Gurobi 7.5.2 (win32, Python) logging started 07/06/18 06:46:21

Academic license - for non-commercial use only

Gurobi 7.5.2 (win32, Python) logging started 07/06/18 06:46:29

Academic license - for non-commercial use only

Gurobi 7.5.2 (win32, Python) logging started 07/06/18 06:46:40

Academic license - for non-commercial use only

Gurobi 7.5.2 (win32, Python) logging started 07/06/18 06:46:51

Academic license - for non-commercial use only

Gurobi 7.5.2 (win32, Python) logging started 07/06/18 06:47:09

Academic license - for non-commercial use only

Gurobi 7.5.2 (win32, Python) logging started 07/06/18 06:47:16

Academic license - for non-commercial use only

Gurobi 7.5.2 (win32, Python) logging started 07/06/18 06:47:24

Academic license - for non-commercial use only

Gurobi 7.5.2 (win32, Python) logging started 07/06/18 06:47:31

Academic license - for non-commercial use only

Gurobi 7.5.2 (win32, Python) logging started 07/06/18 06:47:43

Academic license - for non-commercial use only

Gurobi 7.5.2 (win32, Python) logging started 07/06/18 06:47:51

Academic license - for non-commercial use only

Gurobi 7.5.2 (win32, Python) logging started 07/06/18 06:48:04

Academic license - for non-commercial use only

Gurobi 7.5.2 (win32, Python) logging started 07/06/18 06:48:13

Academic license - for non-commercial use only

Gurobi 7.5.2 (win32, Python) logging started 07/06/18 06:49:25

Academic license - for non-commercial use only

Gurobi 7.5.2 (win32, Python) logging started 07/06/18 06:49:56

Academic license - for non-commercial use only

Gurobi 7.5.2 (win32, Python) logging started 07/06/18 06:50:07

Academic license - for non-commercial use only

Gurobi 7.5.2 (win32, Python) logging started 07/06/18 06:50:18

Academic license - for non-commercial use only

Gurobi 7.5.2 (win32, Python) logging started 07/06/18 06:50:40

Academic license - for non-commercial use only

Gurobi 7.5.2 (win32, Python) logging started 07/06/18 06:51:07

Academic license - for non-commercial use only

Gurobi 7.5.2 (win32, Python) logging started 07/06/18 06:51:18

Academic license - for non-commercial use only

Gurobi 7.5.2 (win32, Python) logging started 07/06/18 06:51:51

Academic license - for non-commercial use only

Gurobi 7.5.2 (win32, Python) logging started 07/06/18 06:53:12

Academic license - for non-commercial use only

Gurobi 7.5.2 (win32, Python) logging started 07/06/18 06:53:54

Academic license - for non-commercial use only

Gurobi 7.5.2 (win32, Python) logging started 07/06/18 06:54:10

Academic license - for non-commercial use only

Gurobi 7.5.2 (win32, Python) logging started 07/06/18 06:54:23

Academic license - for non-commercial use only

Gurobi 7.5.2 (win32, Python) logging started 07/06/18 06:54:54

Academic license - for non-commercial use only

Gurobi 7.5.2 (win32, Python) logging started 07/06/18 06:55:21

Academic license - for non-commercial use only

Gurobi 7.5.2 (win32, Python) logging started 07/06/18 06:55:52

Academic license - for non-commercial use only

Gurobi 7.5.2 (win32, Python) logging started 07/06/18 06:56:08

Academic license - for non-commercial use only

Gurobi 7.5.2 (win32, Python) logging started 07/06/18 06:56:19

Academic license - for non-commercial use only

Gurobi 7.5.2 (win32, Python) logging started 07/06/18 06:56:28

Academic license - for non-commercial use only

Gurobi 7.5.2 (win32, Python) logging started 07/06/18 06:57:25

Academic license - for non-commercial use only

Gurobi 7.5.2 (win32, Python) logging started 07/06/18 06:57:59

Academic license - for non-commercial use only

Gurobi 7.5.2 (win32, Python) logging started 07/06/18 16:03:02

Academic license - for non-commercial use only

Gurobi 7.5.2 (win32, Python) logging started 07/06/18 16:05:26

Academic license - for non-commercial use only
